(set-logic QF_LRA)
(declare-fun X0 () Real )
(declare-fun Y0 () Real )
(declare-fun X1 () Real )
(declare-fun Y1 () Real )
(declare-fun X2 () Real )
(declare-fun Y2 () Real )
(declare-fun X3 () Real )
(declare-fun Y3 () Real )
(declare-fun X4 () Real )
(declare-fun Y4 () Real )
(declare-fun X5 () Real )
(declare-fun Y5 () Real )
(declare-fun X6 () Real )
(declare-fun Y6 () Real )
(declare-fun X7 () Real )
(declare-fun Y7 () Real )
(declare-fun X8 () Real )
(declare-fun Y8 () Real )
(declare-fun X9 () Real )
(declare-fun Y9 () Real )
(declare-fun X10 () Real )
(declare-fun Y10 () Real )
(declare-fun X11 () Real )
(declare-fun Y11 () Real )
(declare-fun Z () Real )
(assert ( and  
( or ( <= ( + X0 70 ) X1 )  ( <= ( + X1 39 ) X0 )  ( <= ( + Y0 33 ) Y1 )  ( <= ( + Y1 14 ) Y0 )  )
( or ( <= ( + X0 70 ) X2 )  ( <= ( + X2 84 ) X0 )  ( <= ( + Y0 33 ) Y2 )  ( <= ( + Y2 3 ) Y0 )  )
( or ( <= ( + X0 70 ) X3 )  ( <= ( + X3 100 ) X0 )  ( <= ( + Y0 33 ) Y3 )  ( <= ( + Y3 88 ) Y0 )  )
( or ( <= ( + X0 70 ) X4 )  ( <= ( + X4 91 ) X0 )  ( <= ( + Y0 33 ) Y4 )  ( <= ( + Y4 93 ) Y0 )  )
( or ( <= ( + X0 70 ) X5 )  ( <= ( + X5 41 ) X0 )  ( <= ( + Y0 33 ) Y5 )  ( <= ( + Y5 27 ) Y0 )  )
( or ( <= ( + X0 70 ) X6 )  ( <= ( + X6 11 ) X0 )  ( <= ( + Y0 33 ) Y6 )  ( <= ( + Y6 42 ) Y0 )  )
( or ( <= ( + X0 70 ) X7 )  ( <= ( + X7 76 ) X0 )  ( <= ( + Y0 33 ) Y7 )  ( <= ( + Y7 18 ) Y0 )  )
( or ( <= ( + X0 70 ) X8 )  ( <= ( + X8 17 ) X0 )  ( <= ( + Y0 33 ) Y8 )  ( <= ( + Y8 1 ) Y0 )  )
( or ( <= ( + X0 70 ) X9 )  ( <= ( + X9 53 ) X0 )  ( <= ( + Y0 33 ) Y9 )  ( <= ( + Y9 10 ) Y0 )  )
( or ( <= ( + X0 70 ) X10 )  ( <= ( + X10 53 ) X0 )  ( <= ( + Y0 33 ) Y10 )  ( <= ( + Y10 36 ) Y0 )  )
( or ( <= ( + X0 70 ) X11 )  ( <= ( + X11 66 ) X0 )  ( <= ( + Y0 33 ) Y11 )  ( <= ( + Y11 61 ) Y0 )  )
( or ( <= ( + X1 39 ) X2 )  ( <= ( + X2 84 ) X1 )  ( <= ( + Y1 14 ) Y2 )  ( <= ( + Y2 3 ) Y1 )  )
( or ( <= ( + X1 39 ) X3 )  ( <= ( + X3 100 ) X1 )  ( <= ( + Y1 14 ) Y3 )  ( <= ( + Y3 88 ) Y1 )  )
( or ( <= ( + X1 39 ) X4 )  ( <= ( + X4 91 ) X1 )  ( <= ( + Y1 14 ) Y4 )  ( <= ( + Y4 93 ) Y1 )  )
( or ( <= ( + X1 39 ) X5 )  ( <= ( + X5 41 ) X1 )  ( <= ( + Y1 14 ) Y5 )  ( <= ( + Y5 27 ) Y1 )  )
( or ( <= ( + X1 39 ) X6 )  ( <= ( + X6 11 ) X1 )  ( <= ( + Y1 14 ) Y6 )  ( <= ( + Y6 42 ) Y1 )  )
( or ( <= ( + X1 39 ) X7 )  ( <= ( + X7 76 ) X1 )  ( <= ( + Y1 14 ) Y7 )  ( <= ( + Y7 18 ) Y1 )  )
( or ( <= ( + X1 39 ) X8 )  ( <= ( + X8 17 ) X1 )  ( <= ( + Y1 14 ) Y8 )  ( <= ( + Y8 1 ) Y1 )  )
( or ( <= ( + X1 39 ) X9 )  ( <= ( + X9 53 ) X1 )  ( <= ( + Y1 14 ) Y9 )  ( <= ( + Y9 10 ) Y1 )  )
( or ( <= ( + X1 39 ) X10 )  ( <= ( + X10 53 ) X1 )  ( <= ( + Y1 14 ) Y10 )  ( <= ( + Y10 36 ) Y1 )  )
( or ( <= ( + X1 39 ) X11 )  ( <= ( + X11 66 ) X1 )  ( <= ( + Y1 14 ) Y11 )  ( <= ( + Y11 61 ) Y1 )  )
( or ( <= ( + X2 84 ) X3 )  ( <= ( + X3 100 ) X2 )  ( <= ( + Y2 3 ) Y3 )  ( <= ( + Y3 88 ) Y2 )  )
( or ( <= ( + X2 84 ) X4 )  ( <= ( + X4 91 ) X2 )  ( <= ( + Y2 3 ) Y4 )  ( <= ( + Y4 93 ) Y2 )  )
( or ( <= ( + X2 84 ) X5 )  ( <= ( + X5 41 ) X2 )  ( <= ( + Y2 3 ) Y5 )  ( <= ( + Y5 27 ) Y2 )  )
( or ( <= ( + X2 84 ) X6 )  ( <= ( + X6 11 ) X2 )  ( <= ( + Y2 3 ) Y6 )  ( <= ( + Y6 42 ) Y2 )  )
( or ( <= ( + X2 84 ) X7 )  ( <= ( + X7 76 ) X2 )  ( <= ( + Y2 3 ) Y7 )  ( <= ( + Y7 18 ) Y2 )  )
( or ( <= ( + X2 84 ) X8 )  ( <= ( + X8 17 ) X2 )  ( <= ( + Y2 3 ) Y8 )  ( <= ( + Y8 1 ) Y2 )  )
( or ( <= ( + X2 84 ) X9 )  ( <= ( + X9 53 ) X2 )  ( <= ( + Y2 3 ) Y9 )  ( <= ( + Y9 10 ) Y2 )  )
( or ( <= ( + X2 84 ) X10 )  ( <= ( + X10 53 ) X2 )  ( <= ( + Y2 3 ) Y10 )  ( <= ( + Y10 36 ) Y2 )  )
( or ( <= ( + X2 84 ) X11 )  ( <= ( + X11 66 ) X2 )  ( <= ( + Y2 3 ) Y11 )  ( <= ( + Y11 61 ) Y2 )  )
( or ( <= ( + X3 100 ) X4 )  ( <= ( + X4 91 ) X3 )  ( <= ( + Y3 88 ) Y4 )  ( <= ( + Y4 93 ) Y3 )  )
( or ( <= ( + X3 100 ) X5 )  ( <= ( + X5 41 ) X3 )  ( <= ( + Y3 88 ) Y5 )  ( <= ( + Y5 27 ) Y3 )  )
( or ( <= ( + X3 100 ) X6 )  ( <= ( + X6 11 ) X3 )  ( <= ( + Y3 88 ) Y6 )  ( <= ( + Y6 42 ) Y3 )  )
( or ( <= ( + X3 100 ) X7 )  ( <= ( + X7 76 ) X3 )  ( <= ( + Y3 88 ) Y7 )  ( <= ( + Y7 18 ) Y3 )  )
( or ( <= ( + X3 100 ) X8 )  ( <= ( + X8 17 ) X3 )  ( <= ( + Y3 88 ) Y8 )  ( <= ( + Y8 1 ) Y3 )  )
( or ( <= ( + X3 100 ) X9 )  ( <= ( + X9 53 ) X3 )  ( <= ( + Y3 88 ) Y9 )  ( <= ( + Y9 10 ) Y3 )  )
( or ( <= ( + X3 100 ) X10 )  ( <= ( + X10 53 ) X3 )  ( <= ( + Y3 88 ) Y10 )  ( <= ( + Y10 36 ) Y3 )  )
( or ( <= ( + X3 100 ) X11 )  ( <= ( + X11 66 ) X3 )  ( <= ( + Y3 88 ) Y11 )  ( <= ( + Y11 61 ) Y3 )  )
( or ( <= ( + X4 91 ) X5 )  ( <= ( + X5 41 ) X4 )  ( <= ( + Y4 93 ) Y5 )  ( <= ( + Y5 27 ) Y4 )  )
( or ( <= ( + X4 91 ) X6 )  ( <= ( + X6 11 ) X4 )  ( <= ( + Y4 93 ) Y6 )  ( <= ( + Y6 42 ) Y4 )  )
( or ( <= ( + X4 91 ) X7 )  ( <= ( + X7 76 ) X4 )  ( <= ( + Y4 93 ) Y7 )  ( <= ( + Y7 18 ) Y4 )  )
( or ( <= ( + X4 91 ) X8 )  ( <= ( + X8 17 ) X4 )  ( <= ( + Y4 93 ) Y8 )  ( <= ( + Y8 1 ) Y4 )  )
( or ( <= ( + X4 91 ) X9 )  ( <= ( + X9 53 ) X4 )  ( <= ( + Y4 93 ) Y9 )  ( <= ( + Y9 10 ) Y4 )  )
( or ( <= ( + X4 91 ) X10 )  ( <= ( + X10 53 ) X4 )  ( <= ( + Y4 93 ) Y10 )  ( <= ( + Y10 36 ) Y4 )  )
( or ( <= ( + X4 91 ) X11 )  ( <= ( + X11 66 ) X4 )  ( <= ( + Y4 93 ) Y11 )  ( <= ( + Y11 61 ) Y4 )  )
( or ( <= ( + X5 41 ) X6 )  ( <= ( + X6 11 ) X5 )  ( <= ( + Y5 27 ) Y6 )  ( <= ( + Y6 42 ) Y5 )  )
( or ( <= ( + X5 41 ) X7 )  ( <= ( + X7 76 ) X5 )  ( <= ( + Y5 27 ) Y7 )  ( <= ( + Y7 18 ) Y5 )  )
( or ( <= ( + X5 41 ) X8 )  ( <= ( + X8 17 ) X5 )  ( <= ( + Y5 27 ) Y8 )  ( <= ( + Y8 1 ) Y5 )  )
( or ( <= ( + X5 41 ) X9 )  ( <= ( + X9 53 ) X5 )  ( <= ( + Y5 27 ) Y9 )  ( <= ( + Y9 10 ) Y5 )  )
( or ( <= ( + X5 41 ) X10 )  ( <= ( + X10 53 ) X5 )  ( <= ( + Y5 27 ) Y10 )  ( <= ( + Y10 36 ) Y5 )  )
( or ( <= ( + X5 41 ) X11 )  ( <= ( + X11 66 ) X5 )  ( <= ( + Y5 27 ) Y11 )  ( <= ( + Y11 61 ) Y5 )  )
( or ( <= ( + X6 11 ) X7 )  ( <= ( + X7 76 ) X6 )  ( <= ( + Y6 42 ) Y7 )  ( <= ( + Y7 18 ) Y6 )  )
( or ( <= ( + X6 11 ) X8 )  ( <= ( + X8 17 ) X6 )  ( <= ( + Y6 42 ) Y8 )  ( <= ( + Y8 1 ) Y6 )  )
( or ( <= ( + X6 11 ) X9 )  ( <= ( + X9 53 ) X6 )  ( <= ( + Y6 42 ) Y9 )  ( <= ( + Y9 10 ) Y6 )  )
( or ( <= ( + X6 11 ) X10 )  ( <= ( + X10 53 ) X6 )  ( <= ( + Y6 42 ) Y10 )  ( <= ( + Y10 36 ) Y6 )  )
( or ( <= ( + X6 11 ) X11 )  ( <= ( + X11 66 ) X6 )  ( <= ( + Y6 42 ) Y11 )  ( <= ( + Y11 61 ) Y6 )  )
( or ( <= ( + X7 76 ) X8 )  ( <= ( + X8 17 ) X7 )  ( <= ( + Y7 18 ) Y8 )  ( <= ( + Y8 1 ) Y7 )  )
( or ( <= ( + X7 76 ) X9 )  ( <= ( + X9 53 ) X7 )  ( <= ( + Y7 18 ) Y9 )  ( <= ( + Y9 10 ) Y7 )  )
( or ( <= ( + X7 76 ) X10 )  ( <= ( + X10 53 ) X7 )  ( <= ( + Y7 18 ) Y10 )  ( <= ( + Y10 36 ) Y7 )  )
( or ( <= ( + X7 76 ) X11 )  ( <= ( + X11 66 ) X7 )  ( <= ( + Y7 18 ) Y11 )  ( <= ( + Y11 61 ) Y7 )  )
( or ( <= ( + X8 17 ) X9 )  ( <= ( + X9 53 ) X8 )  ( <= ( + Y8 1 ) Y9 )  ( <= ( + Y9 10 ) Y8 )  )
( or ( <= ( + X8 17 ) X10 )  ( <= ( + X10 53 ) X8 )  ( <= ( + Y8 1 ) Y10 )  ( <= ( + Y10 36 ) Y8 )  )
( or ( <= ( + X8 17 ) X11 )  ( <= ( + X11 66 ) X8 )  ( <= ( + Y8 1 ) Y11 )  ( <= ( + Y11 61 ) Y8 )  )
( or ( <= ( + X9 53 ) X10 )  ( <= ( + X10 53 ) X9 )  ( <= ( + Y9 10 ) Y10 )  ( <= ( + Y10 36 ) Y9 )  )
( or ( <= ( + X9 53 ) X11 )  ( <= ( + X11 66 ) X9 )  ( <= ( + Y9 10 ) Y11 )  ( <= ( + Y11 61 ) Y9 )  )
( or ( <= ( + X10 53 ) X11 )  ( <= ( + X11 66 ) X10 )  ( <= ( + Y10 36 ) Y11 )  ( <= ( + Y11 61 ) Y10 )  )
( >= X0 0)
( <= ( + X0 70) Z)
( >= Y0 0)
( <= ( + Y0 33 ) 100)
( >= X1 0)
( <= ( + X1 39) Z)
( >= Y1 0)
( <= ( + Y1 14 ) 100)
( >= X2 0)
( <= ( + X2 84) Z)
( >= Y2 0)
( <= ( + Y2 3 ) 100)
( >= X3 0)
( <= ( + X3 100) Z)
( >= Y3 0)
( <= ( + Y3 88 ) 100)
( >= X4 0)
( <= ( + X4 91) Z)
( >= Y4 0)
( <= ( + Y4 93 ) 100)
( >= X5 0)
( <= ( + X5 41) Z)
( >= Y5 0)
( <= ( + Y5 27 ) 100)
( >= X6 0)
( <= ( + X6 11) Z)
( >= Y6 0)
( <= ( + Y6 42 ) 100)
( >= X7 0)
( <= ( + X7 76) Z)
( >= Y7 0)
( <= ( + Y7 18 ) 100)
( >= X8 0)
( <= ( + X8 17) Z)
( >= Y8 0)
( <= ( + Y8 1 ) 100)
( >= X9 0)
( <= ( + X9 53) Z)
( >= Y9 0)
( <= ( + Y9 10 ) 100)
( >= X10 0)
( <= ( + X10 53) Z)
( >= Y10 0)
( <= ( + Y10 36 ) 100)
( >= X11 0)
( <= ( + X11 66) Z)
( >= Y11 0)
( <= ( + Y11 61 ) 100)
) )
(minimize Z)
(check-sat)
